c --- [ banner ] -------------------------------------------------------------
c 
c CaDiCaL Radically Simplified CDCL SAT Solver
c Copyright (c) 2016-2021 A. Biere, M. Fleury, N. Froleyks
c 
c Version 1.5.2 a5f15211db36c3956764e18194dd5bd63bf3b5e6
c g++ (GCC) 9.3.0 -Wall -Wextra -O3 -DNDEBUG
c Fri Oct 21 01:27:37 EDT 2022 Linux gra-login3 3.10.0-1160.66.1.el7.x86_64 x86_64
c 
c --- [ limit ] --------------------------------------------------------------
c 
c setting conflict limit to 200000 conflicts (due to '200000')
c 
c --- [ parsing input ] ------------------------------------------------------
c 
c reading DIMACS file from '33.cubes1894.adj'
c opening file to read '33.cubes1894.adj'
c found 'p cnf 6160 1595469' header
c parsed 1595469 clauses in 19.17 seconds process time
c closing file '33.cubes1894.adj'
c after reading 1457566733 bytes 1390.0 MB
c 
c --- [ options ] ------------------------------------------------------------
c 
c all options are set to their default value
c 
c --- [ solving ] ------------------------------------------------------------
c 
c time measured in process time since initialization
c 
c  seconds    reductions  redundant   irredundant
c          MB     restarts       trail       variables
c            level   conflicts       glue         remaining
c 
c * 19.18 1380  0 0   0    0    0  0% 0 1595422 2374 39%
c { 20.42 1435  0 0   0    0    0  0% 0 1595422 2374 39%
c i 23.25 1503 258 0  15   76   71 30% 21 1595422 2373 39%
c i 23.92 1510 232 0  19   95   86 30% 28 1595422 2372 39%
c i 24.36 1511 203 0  25  127  111 29% 29 1595422 2371 38%
c i 24.60 1512 203 0  27  134  116 29% 32 1595422 2370 38%
c i 24.81 1514 188 0  33  158  134 29% 38 1595422 2368 38%
c i 25.38 1518 173 0  43  203  174 29% 45 1595422 2367 38%
c i 25.62 1518 170 0  47  219  189 29% 47 1595422 2366 38%
c i 25.65 1518 170 0  48  223  190 29% 48 1595422 2365 38%
c i 25.73 1518 163 0  53  242  207 29% 49 1595422 2353 38%
c i 25.93 1518 161 0  58  257  221 29% 49 1595422 2352 38%
c i 25.94 1518 161 0  59  258  221 29% 49 1595422 2351 38%
c - 30.16 1458 150 1  61  301  259 29% 49 241777 2351 38%
c i 30.31 1458 145 1  61  320  277 29% 49 241777 2350 38%
c i 30.52 1458 135 1  65  410  351 29% 49 241777 2349 38%
c i 30.54 1458 131 1  65  424  361 29% 48 241777 2348 38%
c i 30.57 1458 126 1  65  446  378 29% 46 241777 2347 38%
c i 30.58 1458 120 1  65  475  395 29% 44 241777 2346 38%
c i 30.62 1458 115 1  65  503  418 29% 43 241777 2345 38%
c 
c  seconds     reductions  redundant   irredundant
c          MB      restarts       trail       variables
c             level   conflicts       glue         remaining
c 
c i 30.65 1458 112 1  65  526  432 29% 43 241777 2344 38%
c i 30.67 1458 111 1  65  533  438 29% 43 241777 2343 38%
c i 30.69 1458 110 1  65  539  443 29% 43 241777 2342 38%
c i 30.70 1458 108 1  65  553  452 29% 42 241777 2341 38%
c i 30.71 1458 107 1  65  558  456 30% 42 241777 2340 38%
c i 30.75 1458 103 1  65  592  488 30% 41 241777 2339 38%
c i 30.85 1458 97 1  69  689  578 30% 41 241777 2338 38%
c i 30.86 1458 94 1  69  716  595 30% 40 241777 2337 38%
c i 30.88 1458 91 1  69  758  632 30% 40 241777 2336 38%
c i 30.91 1458 90 1  69  796  665 30% 40 241777 2335 38%
c i 30.92 1458 90 1  69  797  665 30% 40 241777 2334 38%
c i 30.94 1458 89 1  69  820  684 30% 40 241777 2333 38%
c i 31.13 1458 86 1  77  978  807 30% 40 241777 2332 38%
c } 31.21 1458 85 1  81 1000  827 30% 40 241777 2332 38%
c [ 31.21 1458  0 1  81 1000  827  0% 0 241777 2332 38%
c O 31.23 1458 23 1  81 1002  829 26% 3 241777 2332 38%
c i 31.38 1458 19 1  81 1118  899 30% 14 241777 2331 38%
c - 31.81 1577 19 2  81 1131  778 30% 14 241717 2331 38%
c i 31.88 1577 19 2  81 1168  809 30% 15 241717 2330 38%
c i 31.88 1577 19 2  81 1173  813 30% 15 241717 2329 38%
c 
c  seconds    reductions  redundant   irredundant
c          MB     restarts       trail       variables
c            level   conflicts       glue         remaining
c 
c i 31.90 1577 18 2  81 1215  846 30% 15 241717 2328 38%
c i 31.91 1577 19 2  81 1236  863 30% 15 241717 2327 38%
c i 31.97 1577 19 2  81 1418 1005 30% 16 241717 2326 38%
c i 32.01 1577 21 2  81 1486 1055 30% 17 241717 2325 38%
c i 32.05 1577 22 2  81 1554 1095 30% 18 241717 2324 38%
c i 32.27 1577 25 2  82 2062 1426 30% 20 241717 2323 38%
c i 32.33 1577 25 2  82 2215 1531 30% 21 241717 2322 38%
c i 32.37 1577 28 2  82 2321 1600 30% 23 241717 2321 38%
c i 32.37 1577 28 2  82 2322 1600 30% 23 241717 2320 38%
c i 32.37 1577 28 2  82 2323 1600 30% 23 241717 2319 38%
c i 32.37 1577 28 2  82 2324 1600 30% 23 241717 2318 38%
c - 32.73 1574 28 3  82 2378 1217 30% 23 241678 2318 38%
c i 32.97 1485 29 3  82 2459 1273 49% 23 241678 2317 38%
c i 32.97 1485 29 3  82 2477 1289 48% 23 241678 2316 38%
c i 32.99 1485 29 3  82 2497 1303 48% 23 241678 2315 38%
c i 33.05 1485 30 3  82 2711 1473 50% 24 241678 2314 38%
c i 33.07 1485 30 3  82 2775 1518 49% 24 241678 2313 38%
c i 33.09 1485 30 3  82 2853 1571 49% 24 241678 2312 38%
c i 33.10 1485 30 3  82 2910 1613 49% 25 241678 2311 38%
c ] 33.12 1485 31 3  82 3000 1679 49% 25 241678 2311 38%
c 
c  seconds    reductions  redundant   irredundant
c          MB     restarts       trail       variables
c            level   conflicts       glue         remaining
c 
c { 33.12 1485 85 3  82 3000 1679 79% 40 241678 2311 38%
c F 33.13 1485 85 3  82 3008 1685 79% 40 241678 2311 38%
c i 33.23 1485 84 3  82 3039 1714 78% 40 241678 2310 38%
c i 33.40 1484 85 3  94 3113 1776 76% 41 241678 2309 37%
c i 33.42 1484 84 3  97 3123 1783 75% 41 241678 2308 37%
c i 33.42 1484 84 3  97 3124 1783 75% 40 241678 2307 37%
c i 33.46 1484 82 3  97 3166 1814 74% 40 241678 2306 37%
c i 33.51 1484 79 3  97 3286 1912 72% 39 241678 2305 37%
c i 33.51 1484 78 3  97 3290 1915 72% 38 241678 2304 37%
c i 33.52 1484 78 3  97 3292 1916 72% 38 241678 2303 37%
c i 33.52 1484 78 3  97 3295 1918 72% 38 241678 2302 37%
c i 33.57 1484 75 3  97 3412 2011 70% 37 241678 2301 37%
c i 33.57 1484 75 3  97 3413 2011 70% 37 241678 2300 37%
c i 33.59 1484 74 3  97 3446 2031 69% 37 241678 2299 37%
c i 33.60 1484 74 3  97 3449 2033 69% 37 241678 2298 37%
c i 33.61 1484 73 3  97 3475 2049 69% 37 241678 2297 37%
c i 33.63 1484 73 3  97 3506 2075 68% 37 241678 2296 37%
c i 33.64 1484 72 3  97 3521 2089 68% 37 241678 2295 37%
c i 33.64 1484 72 3  97 3524 2091 68% 37 241678 2294 37%
c i 33.86 1484 73 3 111 3642 2192 67% 37 241678 2293 37%
c 
c  seconds    reductions  redundant   irredundant
c          MB     restarts       trail       variables
c            level   conflicts       glue         remaining
c 
c i 33.91 1484 68 3 111 3827 2325 65% 35 241678 2292 37%
c - 34.31 1479 64 4 111 4039 1818 64% 34 241600 2292 37%
c i 34.44 1479 65 4 112 4066 1841 63% 34 241600 2291 37%
c i 34.46 1479 64 4 112 4085 1853 63% 34 241600 2290 37%
c i 34.47 1479 64 4 112 4097 1859 63% 34 241600 2289 37%
c i 34.61 1479 63 4 112 4283 1998 62% 34 241600 2288 37%
c i 34.61 1479 63 4 112 4285 1999 62% 34 241600 2287 37%
c i 34.67 1479 63 4 115 4300 2013 62% 34 241600 2286 37%
c i 34.74 1479 63 4 122 4330 2038 62% 34 241600 2285 37%
c i 35.03 1479 59 4 130 4748 2341 60% 33 241600 2284 37%
c d 35.54 1479 57 4 131 5000 2530 59% 32 232687 2271 37%
c p 37.41 1479 57 4 131 5000 7337 59% 32 232687 2150 35%
c # 37.86 1479 50 4 138 6012 8121 57% 29 232687 2150 35%
c - 38.32 1337 49 5 138 6118 2517 57% 29 185415 2150 35%
c } 38.66 1337 45 5 138 7001 3182 56% 27 185415 2150 35%
c [ 38.66 1337 31 5 138 7001 3182 49% 25 185415 2150 35%
c - 39.12 1337 28 6 139 8401 2778 50% 23 185415 2150 35%
c I 39.62 1337 25 6 140 10015 3862 51% 21 185415 2150 35%
c - 40.28 1337 34 7 141 11064 3335 50% 27 185415 2150 35%
c - 41.57 1337 47 8 143 14109 4072 49% 36 185415 2150 35%
c 
c  seconds    reductions   redundant   irredundant
c          MB     restarts        trail       variables
c            level    conflicts       glue         remaining
c 
c 2 42.09 1337 48 8 143 15000 6198 49% 38 185411 2149 35%
c p 43.91 1337 48 8 143 15000 9485 49% 38 185411 2149 35%
c d 43.96 1337 48 8 143 15000 9484 49% 38 185410 2148 35%
c ] 44.04 1337 48 8 143 15001 9485 49% 38 185410 2148 35%
c { 44.04 1337 45 8 143 15001 9485 56% 27 185410 2148 35%
c B 44.16 1337 45 8 143 15021 9500 56% 27 185410 2148 35%
c - 47.00 1337 41 9 229 17533 4848 53% 27 185410 2148 35%
c s 47.44 1337 39 9 230 18786 5519 53% 25 183818 2148 35%
c v 49.31 1337 39 9 230 18786 5519 53% 25 183803 2148 35%
c t 49.35 1337 39 9 230 18786 5501 53% 25 183792 2148 35%
c e 49.91 1339 39 9 230 18786 5091 53% 25 180894 724 12%
c s 49.99 1339 39 9 230 18786 5090 53% 25 179735 724 12%
c W 51.77 1339 35 9 230 21022 6667 79% 24 179735 724 12%
c - 52.39 1339 35 10 277 21337 5310 79% 24 179735 724 12%
c - 54.22 1339 31 11 295 25478 4938 79% 22 179735 724 12%
c F 54.97 1339 30 11 295 28023 6670 79% 22 179735 724 12%
c - 56.94 1339 30 12 426 29994 5481 78% 22 179735 724 12%
c 3 56.99 1339 30 12 428 30002 5806 78% 22 179734 724 12%
c p 59.24 1339 30 12 428 30002 7827 78% 22 179734 719 12%
c } 61.18 1339 31 12 588 31001 8603 78% 22 179734 719 12%
c 
c  seconds    reductions    redundant    irredundant
c          MB      restarts        trail        variables
c            level     conflicts        glue        remaining
c 
c [ 61.18 1339 48 12 588 31001 8603 158% 38 179734 719 12%
c - 62.47 1339 41 13 590 34890 6083 132% 32 179720 719 12%
c B 62.91 1339 42 13 591 36026 6888 128% 33 179720 719 12%
c - 63.93 1339 42 14 594 40163 7076 116% 34 179720 719 12%
c ] 64.90 1339 42 14 595 44128 10197 108% 34 179720 719 12%
c 1 64.90 1339 42 14 595 44128 10197 108% 34 179720 719 12%
c 
c --- [ writing output ] -----------------------------------------------------
c 
c writing simplified CNF to DIMACS file 'simp/33.cubes1894.adj.simp1'
c * 64.90 1339 42 14 595 44128 10197 108% 34 179720 719 12%
c opening file to write 'simp/33.cubes1894.adj.simp1'
c writing 'p cnf 6160 179720' header
c closing file 'simp/33.cubes1894.adj.simp1'
c after writing 86029639 bytes 82.0 MB
c wrote 179720 clauses in 0.59 seconds process time
c 
c --- [ writing extension ] --------------------------------------------------
c 
c writing extension stack to 'simp/33.cubes1894.adj.ext1'
c opening file to write 'simp/33.cubes1894.adj.ext1'
c closing file 'simp/33.cubes1894.adj.ext1'
c after writing 91648 bytes 0.1 MB
c wrote 4078 witnesses in 0.00 seconds process time
c 
c --- [ result ] -------------------------------------------------------------
c 
s SATISFIABLE
c 
c --- [ run-time profiling ] -------------------------------------------------
c 
c process time taken by individual solving procedures
c (percentage relative to process time for solving)
c 
c        35.92   78.56% search
c        25.48   55.72% unstable
c        19.17   41.93% parse
c         9.80   21.43% simplify
c         8.98   19.64% stable
c         5.88   12.86% probe
c         1.89    4.12% vivify
c         1.24    2.71% lucky
c         1.12    2.45% elim
c         0.22    0.49% walk
c         0.15    0.33% subsume
c         0.07    0.16% ternary
c   =================================
c        45.73   69.82% solve
c 
c last line shows process time for solving
c (percentage relative to total process time)
c 
c --- [ statistics ] ---------------------------------------------------------
c 
c chronological:              8192        18.56 %  of conflicts
c conflicts:                 44128       965.04    per second
c decisions:                 93522      2045.24    per second
c eliminated:                 1424        23.12 %  of all variables
c fixed:                       858        13.93 %  of all variables
c learned:                   43145        97.77 %  per conflict
c learned_lits:            7780462       100.00 %  learned literals
c minimized:                     0         0.00 %  learned literals
c shrunken:                5214620        67.02 %  learned literals
c minishrunken:             428467         5.51 %  learned literals
c propagations:            3798177         0.08 M  per second
c reduced:                   20981        47.55 %  per conflict
c rephased:                      8      5516.00    interval
c restarts:                    595        74.16    interval
c stabilizing:                   3        52.41 %  of conflicts
c substituted:                  15         0.24 %  of all variables
c subsumed:                  14354         0.42 %  of all clauses
c strengthened:               3834         0.11 %  of all clauses
c ternary:                    3086         0.70 %  of resolved
c vivified:                     36         0.00 %  of all clauses
c walked:                        1     44128.00    interval
c weakened:                   3220         3.03    average size
c 
c seconds are measured in process time for solving
c 
c --- [ resources ] ----------------------------------------------------------
c 
c total process time since initialization:        65.50    seconds
c total real time since initialization:           67.51    seconds
c maximum resident set size of process:         1691.76    MB
c 
c --- [ shutting down ] ------------------------------------------------------
c 
c exit 10
WARNING! DIMACS header mismatch: wrong number of variables.
============================[ Problem Statistics ]=============================
|                                                                             |
|  Number of variables:          3022                                         |
|  Number of clauses:          179722                                         |
|  Parse time:                   1.24 s                                       |
|  Simplification time:          0.04 s                                       |
|                                                                             |
============================[ Search Statistics ]====================================================
| Conflicts |          ORIGINAL         |          LEARNT          | Num Sols |      SUBGRAPHS      |
|           |    Vars  Clauses Literals |    Limit  Clauses Lit/Cl |          | Canonical Noncanon. |
=====================================================================================================
|       102 |    2926   179724 18361548 |     2000      102    111 |        0 |        20         2 |
|       254 |    2926   179726 18361574 |     2000      254    110 |        0 |        29         4 |
|       482 |    2926   179729 18361609 |     2000      482    124 |        0 |        39         7 |
|       847 |    2926   179757 18362314 |     2000      847    111 |        0 |        47        35 |
|      1708 |    2926   180112 18367445 |     2000     1708     82 |        0 |       151       390 |
|      2499 |    2926   180144 18368073 |     3600     1499     60 |        0 |       154       422 |
|      3658 |    2926   180164 18368875 |     3600     2658     77 |        0 |       193       442 |
|      5915 |    2926   180713 18376231 |     5001     3116     50 |        0 |       264       991 |
|      8649 |    2926   180885 18379944 |     6305     3354     37 |        0 |       326      1163 |
|     12709 |    2926   181101 18383087 |     7554     4263     41 |        0 |       381      1379 |
|     19861 |    2926   182487 18402690 |     8785     7646     46 |        0 |       749      2765 |
|     28918 |    2926   182895 18409055 |    11200     7318     44 |        0 |       898      3173 |
|     43333 |    2926   184336 18429014 |    13611     9944     45 |        0 |      1166      4614 |
|     64285 |    2926   185827 18451711 |    17215     8700     20 |        0 |      1543      6105 |
|     94834 |    2926   187184 18471223 |    20804    11638     27 |        0 |      1812      7462 |
|    139514 |    2926   188075 18486057 |    24420    23334     54 |        0 |      2025      8353 |
|    206817 |    2926   189694 18509652 |    30412    23629     52 |        0 |      2357      9972 |
|    306817 |    2926   191168 18529961 |    37611    23428     40 |        0 |      2912     11446 |
|    455562 |    2926   192124 18550147 |    46015    27977     41 |        0 |      3480     12402 |
|    678365 |    2926   193244 18575221 |    55606    49971     55 |        0 |      4513     13522 |
|   1013076 |    2926   195430 18624466 |    68829    45905     48 |        0 |      4940     15708 |
|   1517096 |    2926   200662 18727032 |    84423    55919     44 |        0 |      5525     20940 |
|   2270958 |    2926   206342 18856472 |   103617    62575     31 |        1 |      6519     26619 |
|   3403292 |    2892   147588 14438595 |   126415    83211     63 |        1 |      8987     36679 |
=====================================================================================================
Number of solutions   : 2
Canonical subgraphs   : 10869          (10 /sec)
          order  3    : 1              (90909 /sec)
          order  4    : 1              (333333 /sec)
          order  5    : 1              (142857 /sec)
          order  6    : 1              (31250 /sec)
          order  7    : 1              (4975 /sec)
          order  8    : 2              (955 /sec)
          order  9    : 5              (260 /sec)
          order 10    : 13             (60 /sec)
          order 11    : 51             (43 /sec)
          order 12    : 221            (27 /sec)
          order 13    : 308            (29 /sec)
          order 14    : 569            (21 /sec)
          order 15    : 1091           (14 /sec)
          order 16    : 5432           (10 /sec)
          order 17    : 2977           (8 /sec)
          order 18    : 127            (8 /sec)
          order 19    : 30             (6 /sec)
          order 20    : 19             (5 /sec)
          order 21    : 17             (5 /sec)
          order 22    : 2              (0 /sec)
Noncanonical subgraphs: 43672          (371 /sec)
          order  3    : 0              (-nan /sec)
          order  4    : 0              (-nan /sec)
          order  5    : 0              (-nan /sec)
          order  6    : 0              (-nan /sec)
          order  7    : 0              (-nan /sec)
          order  8    : 0              (-nan /sec)
          order  9    : 0              (-nan /sec)
          order 10    : 0              (-nan /sec)
          order 11    : 0              (-nan /sec)
          order 12    : 0              (-nan /sec)
          order 13    : 2835           (7151 /sec)
          order 14    : 1512           (7158 /sec)
          order 15    : 2163           (3052 /sec)
          order 16    : 31709          (494 /sec)
          order 17    : 3190           (238 /sec)
          order 18    : 2144           (64 /sec)
          order 19    : 104            (53 /sec)
          order 20    : 0              (-nan /sec)
          order 21    : 0              (-nan /sec)
Canonicity checking   : 1076.47 s
Noncanonicity checking: 117.739 s
Total canonicity time : 1194.21 s
database reductions   : 117
restarts              : 7739
conflicts             : 4352443        (1755 /sec)
decisions             : 5654690        (0.00 % random) (2280 /sec)
propagations          : 170166096      (68614 /sec)
conflict literals     : 389328234      (57.83 % deleted)
actual reward         : 0.314651
Memory used           : 250.00 MB
CPU time              : 2480.04 s

UNSATISFIABLE
